data/results/2026_03_23_16_16_07_set_ds_1_ds_1_s004_g002_max.sol
# Objective value = 124
c_n7n10n11n12 4
c_n2n8n11 3
c_n2n3n8n13 4
c_n0n3n8n9n13 5
c_n0n5n6n9n13 5
c_n7n9n12n13 3
c_n10n11n12 2
c_n7n11n12 3
c_n7n10n12 3
c_n7n10n11 2
c_n3n8n13 3
c_n2n8n13 2
c_n2n3n13 2
c_n2n3n8 3
c_n3n8n9n13 4
c_n0n8n9n13 3
c_n0n3n9n13 4
c_n0n3n8n13 3
c_n0n3n8n9 3
c_n5n6n9n13 3
c_n0n6n9n13 3
c_n0n5n9n13 4
c_n0n5n6n13 3
c_n0n5n6n9 4
c_n9n12n13 2
c_n7n12n13 2
c_n7n9n13 2
c_n7n9n12 2
c_n8n9n13 2
c_n3n9n13 3
c_n3n8n9 2
c_n0n9n13 3
c_n0n8n13 1
c_n0n8n9 2
c_n0n3n13 2
c_n0n3n9 2
c_n0n3n8 2
c_n6n9n13 2
c_n5n9n13 2
c_n5n6n13 2
c_n5n6n9 2
c_n0n6n13 1
c_n0n6n9 2
c_n0n5n13 2
c_n0n5n9 3
c_n0n5n6 3
y_n0n1 0
y_n1n2 1
y_n0n2 0
y_n1n3 1
y_n0n3 0
y_n1n4 1
y_n0n4 0
y_n1n5 1
y_n0n5 1
y_n1n6 1
y_n0n6 1
y_n1n7 1
y_n0n7 0
y_n1n8 1
y_n0n8 0
y_n1n9 1
y_n0n9 0
y_n1n10 1
y_n0n10 0
y_n1n11 1
y_n0n11 0
y_n1n12 1
y_n0n12 0
y_n1n13 1
y_n0n13 0
y_n2n3 1
y_n2n4 0
y_n2n5 1
y_n2n6 1
y_n2n7 0
y_n2n8 1
y_n2n9 1
y_n2n10 0
y_n2n11 0
y_n2n12 0
y_n2n13 1
y_n3n4 0
y_n3n5 1
y_n3n6 1
y_n3n7 0
y_n3n8 0
y_n3n9 1
y_n3n10 0
y_n3n11 0
y_n3n12 0
y_n3n13 1
y_n4n5 1
y_n4n6 1
y_n4n7 1
y_n4n8 1
y_n4n9 1
y_n4n10 1
y_n4n11 1
y_n4n12 1
y_n4n13 1
y_n5n6 1
y_n5n7 0
y_n5n8 0
y_n5n9 0
y_n5n10 0
y_n5n11 0
y_n5n12 0
y_n5n13 0
y_n6n7 0
y_n6n8 0
y_n6n9 0
y_n6n10 0
y_n6n11 0
y_n6n12 0
y_n6n13 0
y_n7n8 1
y_n7n9 1
y_n7n10 0
y_n7n11 1
y_n7n12 1
y_n7n13 1
y_n8n9 1
y_n8n10 0
y_n8n11 0
y_n8n12 0
y_n8n13 1
y_n9n10 0
y_n9n11 0
y_n9n12 0
y_n9n13 0
y_n10n11 1
y_n10n12 1
y_n10n13 1
y_n11n12 0
y_n11n13 1
y_n12n13 1
pos_n0 11
pos_n1 0
pos_n2 6
pos_n3 8
pos_n4 1
pos_n5 12
pos_n6 13
pos_n7 3
pos_n8 7
pos_n9 10
pos_n10 2
pos_n11 5
pos_n12 4
pos_n13 9
z_n3n13 1
z_n9n13 1
z_n8n13 0
z_n5n13 0
z_n6n13 0
z_n3n9 0
z_n3n8 1
z_n3n5 0
z_n3n6 0
z_n8n9 0
z_n5n9 0
z_n6n9 0
z_n5n8 0
z_n6n8 0
z_n5n6 1
z_n4n6 0
z_n8n11 0
z_n3n11 0
z_n11n13 0
z_n0n13 0
z_n2n13 0
z_n0n9 1
z_n2n9 0
z_n0n8 0
z_n2n8 1
z_n0n2 0
z_n0n6 0
z_n1n13 0
z_n0n5 1
z_n1n5 0
z_n1n9 0
z_n0n1 0
z_n9n12 0
z_n9n11 0
z_n9n10 0
z_n12n13 0
z_n11n12 1
z_n10n12 0
z_n10n13 0
z_n10n11 0
z_n0n3 0
z_n2n3 0
z_n0n11 0
z_n2n11 1
z_n7n13 0
z_n3n12 0
z_n3n7 0
z_n8n12 0
z_n7n8 0
z_n0n12 0
z_n0n7 0
z_n5n12 0
z_n5n7 0
z_n6n12 0
z_n6n7 0
z_n7n12 1
z_n7n11 0
z_n2n12 0
z_n7n10 1
z_n2n7 0
z_n2n10 0
z_n8n10 0
z_n7n9 0
z_n2n5 0
z_n2n6 0
